experiment/data/lkh-res/Vrp-Set-B-n31/Vrp-Set-B-n31-lkh/0.lkh1.vrp
NAME : 0
COMMENT : CVRP Instance
TYPE : CVRP
DIMENSION : 31
EDGE_WEIGHT_TYPE : EUC_2D
CAPACITY : 100
NODE_COORD_SECTION
1	1700	7600
2	2400	600
3	9600	2900
4	1400	1900
5	1400	3200
6	0	3400
7	1600	2200
8	2000	2600
9	2200	2800
10	1700	2300
11	9800	3000
12	3000	800
13	2300	2700
14	1900	2300
15	3400	700
16	3100	700
17	0	3700
18	1900	2300
19	0	3600
20	2600	700
21	9800	3200
22	500	4000
23	1700	2600
24	2100	2600
25	2800	800
26	100	3500
27	2700	2800
28	9900	3000
29	2600	2800
30	1700	2900
31	2000	2600
DEMAND_SECTION
1	0
2	25
3	3
4	13
5	17
6	16
7	9
8	22
9	10
10	16
11	8
12	3
13	16
14	16
15	10
16	24
17	16
18	15
19	14
20	5
21	12
22	2
23	18
24	20
25	15
26	8
27	22
28	15
29	10
30	13
31	19
DEPOT_SECTION
1
-1
EOF
